[VALIDATOR STDOUT]
Checking plan: /home/jfan5/Safety-gen/runs/benchmark/optic/ferry_20260129_162355/ferry/optic_results/ferry-l13-c07-s13001.plan
Plan executed successfully - checking goal
Plan valid
Final value: 28 

Successful plans:
Value: 28
 /home/jfan5/Safety-gen/runs/benchmark/optic/ferry_20260129_162355/ferry/optic_results/ferry-l13-c07-s13001.plan 28
